sat
(
  (define-fun J () String
    "")
  (define-fun G () String
    "aa")
  (define-fun F () String
    "a")
  (define-fun L () String
    "aa")
  (define-fun H () String
    "aa")
  (define-fun K () String
    "")
  (define-fun M () String
    "")
)
